s td 17 84 100
b 1 1 2 3 4 5 6 7 8 9 10 11 12 13 14 15 16 17 18 19 22 23 24 25 26 28 32 33 34 35 36 37 38 39 40 41 42 43 44 45 47 48 49 50 51 53 55 56 57 58 59 60 61 62 63 64 66 67 68 69 70 71 72 73 75 76 77 80 81 82 83 84 85 86 87 88 89 90 91 93 94 95 96 98 99
b 2 1 2 3 4 5 6 7 8 9 10 11 13 14 15 16 17 18 19 22 23 24 25 26 27 28 32 33 34 35 36 37 38 39 40 41 42 43 44 45 47 48 49 50 51 53 55 56 57 58 59 60 61 62 63 64 66 67 68 69 70 71 72 73 75 76 77 80 81 82 83 84 85 86 87 88 89 90 91 93 94 95 96 98 99
b 3 1 2 3 4 5 6 7 8 9 10 11 13 14 15 16 17 18 19 22 23 24 25 26 27 28 32 33 34 35 36 37 38 39 40 41 42 43 44 45 47 48 49 50 51 53 55 56 57 58 59 60 61 62 63 64 66 67 68 69 70 71 72 73 75 76 77 80 81 82 83 84 85 86 88 89 90 91 93 94 95 96 98 99 100
b 4 1 2 3 4 5 6 7 8 9 10 11 13 14 15 16 17 18 19 22 23 24 25 26 27 28 32 33 34 35 36 37 38 39 40 41 42 43 44 45 47 48 49 50 51 53 55 56 57 58 59 60 61 62 63 64 66 67 68 69 70 71 72 73 75 76 77 80 81 82 83 84 85 86 88 89 90 91 92 93 94 95 96 98 100
b 5 1 2 3 4 5 6 7 8 9 10 11 13 14 15 16 17 18 19 22 23 24 25 26 27 28 33 34 36 37 38 39 40 41 42 43 45 47 48 49 50 51 53 54 55 56 57 58 59 60 61 62 63 64 66 67 68 69 70 71 72 73 75 76 77 80 81 82 83 85 86 88 89 90 91 92 93 94 95 96 98 100
b 6 2 3 4 5 6 8 9 10 11 13 14 15 16 17 18 19 23 24 25 26 27 28 33 34 36 37 38 39 40 41 42 43 45 47 48 49 50 51 53 54 55 56 57 58 59 60 61 62 63 64 66 67 68 70 71 72 73 76 77 81 82 83 85 86 88 89 91 92 93 94 95 96 97 98 100
b 7 2 3 4 5 6 8 9 10 11 14 15 16 17 18 19 20 23 24 25 26 27 28 33 34 36 37 38 39 40 42 43 45 47 48 49 50 51 53 54 55 56 57 58 59 60 61 63 64 66 67 68 70 71 72 73 76 77 81 82 83 85 86 88 89 91 92 93 94 95 96 97 98 100
b 8 2 4 5 9 10 11 15 18 19 20 23 25 27 28 33 34 36 38 39 40 42 43 47 49 50 51 52 53 54 55 57 58 59 63 64 67 68 70 71 76 81 82 83 86 88 91 92 94 96 98
b 9 1 2 3 7 8 13 14 16 19 24 27 28 33 34 35 36 37 38 39 44 48 50 53 57 58 61 62 64 65 69 75 77 80 81 83 84 89 91 93 95 98 99 100
b 10 1 2 3 4 5 6 7 8 9 10 11 12 13 14 15 16 17 18 19 22 23 24 26 28 32 33 34 35 36 37 38 39 40 41 42 43 44 45 47 48 49 50 51 53 55 56 57 58 59 60 61 62 63 64 66 67 68 69 70 71 72 73 75 76 77 79 80 81 82 83 84 85 86 87 88 89 90 91 93 94 95 96 98 99
b 11 1 2 3 4 5 6 7 9 10 11 12 13 14 15 16 17 18 19 22 23 24 26 28 32 33 34 35 36 37 38 39 40 41 42 43 44 45 47 48 49 50 51 53 55 56 57 58 59 60 61 62 63 64 66 67 68 69 70 71 72 73 74 75 76 77 79 80 81 82 83 84 85 86 87 88 89 90 91 93 94 95 96 98 99
b 12 1 2 3 4 5 6 7 9 10 11 12 13 14 15 16 17 18 19 22 23 24 26 31 32 33 34 35 36 37 38 39 40 41 42 43 44 45 47 48 49 50 51 53 55 56 57 58 59 60 61 62 63 64 66 67 68 69 70 72 73 74 75 76 77 79 80 81 82 83 84 85 86 87 88 89 90 91 93 94 95 96 98 99
b 13 1 2 3 4 5 6 7 9 10 11 12 13 14 15 16 17 18 19 22 23 24 26 31 32 33 34 35 36 37 38 39 40 41 42 43 44 45 47 48 49 50 51 53 55 56 57 58 59 60 61 62 63 64 66 67 68 70 72 73 74 75 76 77 78 79 80 81 82 83 84 85 86 87 88 89 90 91 93 94 95 96 98 99
b 14 1 2 3 4 5 6 7 9 10 11 12 13 14 15 16 17 19 22 23 24 26 29 31 32 33 34 36 37 38 39 40 41 42 43 44 45 47 48 49 50 51 53 55 56 57 58 59 60 61 62 63 64 66 67 68 70 72 73 74 75 76 77 78 79 80 81 82 83 84 85 86 87 88 89 90 91 93 94 95 96 98 99
b 15 1 2 3 4 5 6 7 9 10 11 12 13 14 15 16 17 19 22 23 29 30 31 32 33 34 37 38 39 40 41 42 43 45 47 48 49 50 51 53 55 56 58 59 60 61 62 63 64 66 67 68 70 72 73 74 75 76 77 78 79 80 81 82 83 84 85 86 87 88 89 91 93 94 95 96 98 99
b 16 1 2 3 4 5 6 7 9 10 13 14 15 16 17 22 23 29 30 31 32 33 34 37 38 39 40 41 42 43 45 46 47 48 49 50 51 53 55 56 58 59 60 61 63 64 66 67 68 70 73 74 75 76 77 78 79 80 81 82 83 84 85 86 87 88 89 91 93 94 96
b 17 3 4 5 6 7 9 10 14 15 17 21 22 23 30 31 32 33 34 37 40 41 42 45 46 47 48 49 50 53 55 56 58 60 67 68 70 75 77 79 80 81 82 85 87 88 89 91 93 96
1 2
1 10
2 3
3 4
3 9
4 5
5 6
6 7
7 8
10 11
11 12
12 13
13 14
14 15
15 16
16 17
